Normalized Data/p04_9_normalized_splitx10_0.vrp
NAME:p04_9_NORMALIZED_splitx10_
BEST_KNOWN: 0
COMMENT: 0
DIMENSION: 614
CAPACITY: 1000
EDGE_WEIGHT_FORMAT: FUNCTION
EDGE_WEIGHT_TYPE: EXACT_2D
NODE_COORD_SECTION
1 0.00000 0.00000
2 -1 25
3 -1 25
4 -10 46
5 -10 46
6 -10 46
7 -10 46
8 -10 46
9 -8 -12
10 -8 -12
11 -8 -12
12 -34 -27
13 -34 -27
14 -34 -27
15 -34 -27
16 -34 -27
17 7 -47
18 7 -47
19 7 -47
20 -16 -25
21 -16 -25
22 -16 -25
23 -16 -25
24 -16 -25
25 -16 -25
26 -34 -8
27 27 9
28 27 9
29 27 9
30 27 9
31 16 -29
32 16 -29
33 16 -29
34 4 7
35 4 7
36 4 7
37 -20 -19
38 -20 -19
39 -20 -19
40 -39 -41
41 -39 -41
42 -39 -41
43 -19 -48
44 -19 -48
45 -19 -48
46 -19 -48
47 -16 -6
48 -16 -6
49 -16 -6
50 43 18
51 43 18
52 43 18
53 43 18
54 43 18
55 43 18
56 27 36
57 27 36
58 -21 42
59 -21 42
60 -21 42
61 -21 42
62 -21 42
63 -21 42
64 15 -21
65 15 -21
66 15 -21
67 15 -21
68 41 -35
69 41 -35
70 41 -35
71 41 -35
72 41 -35
73 42 4
74 42 4
75 42 4
76 33 -30
77 33 -30
78 33 -30
79 33 -30
80 33 -30
81 7 38
82 7 38
83 7 38
84 7 38
85 7 38
86 49 15
87 49 15
88 49 15
89 49 15
90 -28 13
91 -28 13
92 -28 13
93 -28 13
94 -28 13
95 39 25
96 39 25
97 39 25
98 39 25
99 39 25
100 39 25
101 4 4
102 4 4
103 4 4
104 6 -2
105 6 -2
106 6 -2
107 30 -28
108 30 -28
109 30 -28
110 30 -28
111 30 -28
112 -36 42
113 -36 42
114 -36 42
115 50 -14
116 50 -14
117 50 -14
118 -43 11
119 -43 11
120 -43 11
121 28 40
122 28 40
123 28 40
124 28 40
125 28 40
126 -39 -33
127 -39 -33
128 -39 -33
129 41 42
130 41 42
131 41 42
132 41 42
133 39 -20
134 39 -20
135 39 -20
136 39 -20
137 -25 -41
138 -25 -41
139 -25 -41
140 -35 5
141 -35 5
142 11 49
143 11 49
144 11 49
145 11 49
146 11 49
147 -37 -6
148 -37 -6
149 -37 -6
150 42 -45
151 42 -45
152 42 -45
153 42 -45
154 42 -45
155 -22 43
156 -22 43
157 -22 43
158 -22 43
159 -22 43
160 35 9
161 35 9
162 35 9
163 35 9
164 35 9
165 31 28
166 31 28
167 38 -14
168 38 -14
169 -37 -23
170 -37 -23
171 -39 2
172 -39 2
173 -39 2
174 -39 2
175 -39 2
176 -2 23
177 -2 23
178 -2 23
179 -40 29
180 -40 29
181 -40 29
182 -33 -49
183 -33 -49
184 -33 -49
185 -2 -20
186 -2 -20
187 -2 -20
188 -2 -20
189 -2 -20
190 -2 -20
191 19 -33
192 19 -33
193 19 -33
194 19 -33
195 19 -33
196 19 -33
197 -45 -48
198 -45 -48
199 -45 -48
200 -45 -48
201 15 47
202 15 47
203 15 47
204 15 47
205 15 47
206 48 -43
207 48 -43
208 48 -43
209 48 -43
210 -30 10
211 -30 10
212 -30 10
213 -30 10
214 -30 10
215 -30 10
216 -8 -2
217 -8 -2
218 -8 -2
219 -8 -2
220 -8 -2
221 -44 16
222 -44 16
223 -44 16
224 -44 16
225 -25 33
226 -25 33
227 -25 33
228 -25 33
229 -49 38
230 -49 38
231 41 -14
232 41 -14
233 41 -14
234 31 -50
235 31 -50
236 31 -50
237 31 -50
238 31 -50
239 25 -16
240 25 -16
241 25 -16
242 25 -16
243 25 -16
244 -24 -10
245 -24 -10
246 -24 -10
247 -24 -10
248 6 50
249 6 50
250 6 50
251 6 50
252 30 -12
253 30 -12
254 30 -12
255 -42 24
256 -42 24
257 -42 24
258 17 19
259 17 19
260 -22 -25
261 -22 -25
262 -22 -25
263 50 -10
264 50 -10
265 50 -10
266 -19 -24
267 -19 -24
268 -19 -24
269 -19 -24
270 -19 -24
271 9 42
272 9 42
273 9 42
274 17 -12
275 17 -12
276 17 -12
277 28 -26
278 28 -26
279 28 -26
280 28 -26
281 35 -22
282 35 -22
283 35 -22
284 35 -22
285 35 -22
286 35 -22
287 -48 -13
288 -48 -13
289 -48 -13
290 14 -2
291 14 -2
292 14 -2
293 14 -2
294 14 -2
295 47 -45
296 47 -45
297 47 -45
298 47 -45
299 47 -45
300 -17 3
301 -17 3
302 -17 3
303 -17 3
304 -17 3
305 11 45
306 11 45
307 11 45
308 44 6
309 44 6
310 23 -48
311 23 -48
312 23 -48
313 23 -48
314 -29 -41
315 -29 -41
316 -29 -41
317 -29 -41
318 -13 -17
319 -13 -17
320 -31 3
321 -31 3
322 -31 3
323 -31 3
324 -31 3
325 -31 3
326 -31 3
327 5 -28
328 5 -28
329 5 -28
330 5 -28
331 5 -28
332 44 -44
333 44 -44
334 44 -44
335 44 -44
336 44 -44
337 35 20
338 20 47
339 20 47
340 15 -25
341 15 -25
342 15 -25
343 15 -25
344 -31 -44
345 -31 -44
346 -31 -44
347 -31 -44
348 -31 -44
349 -31 -44
350 2 -44
351 2 -44
352 2 -44
353 2 -44
354 45 -32
355 45 -32
356 45 -32
357 45 -32
358 45 -32
359 45 -32
360 -42 1
361 -42 1
362 -42 1
363 -42 1
364 -42 1
365 -42 1
366 -42 1
367 -39 9
368 -39 9
369 -39 9
370 -39 9
371 -39 9
372 5 -43
373 5 -43
374 5 -43
375 -31 -14
376 -31 -14
377 -31 -14
378 -31 -14
379 -31 -14
380 -31 -14
381 -31 -14
382 -37 3
383 -37 3
384 -37 3
385 -37 3
386 -37 3
387 -47 -37
388 -47 -37
389 -47 -37
390 -47 -37
391 -31 2
392 -31 2
393 -31 2
394 -31 2
395 -31 2
396 33 -23
397 33 -23
398 33 -23
399 33 -23
400 -20 -48
401 -20 -48
402 -20 -48
403 -20 -48
404 -20 -48
405 -20 -48
406 -20 -48
407 -27 22
408 -27 22
409 21 -39
410 21 -39
411 21 -39
412 21 -39
413 21 -39
414 21 -39
415 -27 -29
416 -27 -29
417 26 11
418 26 11
419 26 11
420 26 11
421 26 11
422 -20 -4
423 -20 -4
424 -20 -4
425 -20 -4
426 -20 -4
427 44 21
428 44 21
429 44 21
430 44 21
431 44 21
432 44 21
433 6 -33
434 6 -33
435 6 -33
436 6 -33
437 6 -33
438 32 -21
439 32 -21
440 32 -21
441 -45 45
442 -45 45
443 -19 -9
444 29 -30
445 29 -30
446 29 -30
447 29 -30
448 29 -30
449 29 -30
450 -28 12
451 -28 12
452 -28 12
453 -28 12
454 -28 12
455 -35 -13
456 -35 -13
457 -35 -13
458 -35 -13
459 10 -32
460 10 -32
461 10 -32
462 10 -32
463 -45 -15
464 -45 -15
465 -45 -15
466 35 -43
467 35 -43
468 35 -43
469 35 -43
470 35 -43
471 -2 43
472 -2 43
473 -2 43
474 -2 43
475 -2 43
476 -2 43
477 37 26
478 27 -13
479 27 -13
480 27 -13
481 27 -13
482 27 -13
483 9 39
484 9 39
485 9 39
486 -8 9
487 -8 9
488 -8 9
489 -8 9
490 -8 9
491 -44 -35
492 -10 13
493 -10 13
494 -10 13
495 -10 13
496 34 21
497 34 21
498 34 21
499 10 17
500 10 17
501 10 17
502 -34 -7
503 -34 -7
504 -34 -7
505 -34 -7
506 -34 -7
507 -34 -7
508 -34 -7
509 -38 -13
510 -38 -13
511 -38 -13
512 -38 -13
513 44 21
514 44 21
515 44 21
516 44 21
517 44 21
518 25 7
519 25 7
520 25 7
521 25 7
522 25 7
523 14 28
524 14 28
525 14 28
526 14 28
527 -42 -10
528 -42 -10
529 -42 -10
530 6 -10
531 6 -10
532 6 -10
533 6 -10
534 6 -10
535 -3 -15
536 -3 -15
537 -3 -15
538 -3 -15
539 -3 -15
540 -3 -15
541 -3 -15
542 -33 6
543 -33 6
544 -33 6
545 -33 6
546 37 11
547 37 11
548 37 11
549 37 11
550 0 14
551 0 14
552 0 14
553 0 14
554 -11 44
555 -11 44
556 -11 44
557 -11 44
558 -11 44
559 -11 44
560 33 4
561 33 4
562 33 4
563 33 4
564 33 4
565 -44 -40
566 -44 -40
567 -44 -40
568 -35 42
569 -35 42
570 -49 25
571 -49 25
572 -49 25
573 -49 25
574 -49 25
575 -49 25
576 11 -9
577 11 -9
578 -37 36
579 -37 36
580 -37 36
581 -37 36
582 -37 36
583 -37 36
584 -30 34
585 -30 34
586 -30 34
587 7 26
588 7 26
589 7 26
590 7 26
591 7 26
592 7 26
593 -44 -33
594 -44 -33
595 -44 -33
596 -44 -33
597 -44 -33
598 -44 -33
599 18 -8
600 18 -8
601 18 -8
602 18 -8
603 18 -8
604 18 -8
605 -29 -27
606 -29 -27
607 -29 -27
608 -6 -9
609 -6 -9
610 -6 -9
611 -6 -9
612 -6 -9
613 -6 -9
614 -6 -9
DEMAND_SECTION
1 0
2 200
3 200
4 200
5 200
6 10
7 10
8 10
9 200
10 100
11 50
12 200
13 100
14 50
15 10
16 10
17 200
18 50
19 10
20 200
21 50
22 10
23 10
24 10
25 10
26 200
27 200
28 100
29 10
30 10
31 200
32 10
33 10
34 200
35 100
36 10
37 100
38 50
39 10
40 200
41 200
42 50
43 200
44 200
45 50
46 10
47 200
48 100
49 50
50 200
51 100
52 10
53 10
54 10
55 10
56 200
57 10
58 200
59 200
60 50
61 10
62 10
63 10
64 100
65 50
66 10
67 10
68 200
69 10
70 10
71 10
72 10
73 200
74 200
75 100
76 200
77 200
78 50
79 10
80 10
81 200
82 100
83 50
84 10
85 10
86 200
87 100
88 50
89 10
90 200
91 100
92 10
93 10
94 10
95 200
96 100
97 50
98 10
99 10
100 10
101 200
102 100
103 10
104 200
105 200
106 50
107 200
108 100
109 50
110 10
111 10
112 200
113 50
114 10
115 200
116 100
117 10
118 200
119 200
120 10
121 100
122 50
123 10
124 10
125 10
126 200
127 100
128 10
129 100
130 50
131 10
132 10
133 100
134 10
135 10
136 10
137 200
138 200
139 50
140 200
141 10
142 200
143 10
144 10
145 10
146 10
147 100
148 10
149 10
150 200
151 10
152 10
153 10
154 10
155 200
156 10
157 10
158 10
159 10
160 200
161 50
162 10
163 10
164 10
165 200
166 100
167 200
168 100
169 200
170 200
171 200
172 100
173 10
174 10
175 10
176 200
177 50
178 10
179 200
180 100
181 10
182 200
183 100
184 50
185 200
186 200
187 10
188 10
189 10
190 10
191 200
192 50
193 10
194 10
195 10
196 10
197 100
198 10
199 10
200 10
201 100
202 10
203 10
204 10
205 10
206 200
207 100
208 50
209 10
210 200
211 200
212 10
213 10
214 10
215 10
216 200
217 10
218 10
219 10
220 10
221 200
222 100
223 50
224 10
225 100
226 10
227 10
228 10
229 200
230 50
231 200
232 100
233 50
234 200
235 200
236 10
237 10
238 10
239 200
240 10
241 10
242 10
243 10
244 200
245 50
246 10
247 10
248 200
249 200
250 50
251 10
252 200
253 200
254 50
255 200
256 200
257 10
258 200
259 10
260 200
261 200
262 10
263 200
264 200
265 100
266 100
267 50
268 10
269 10
270 10
271 200
272 10
273 10
274 100
275 10
276 10
277 100
278 10
279 10
280 10
281 200
282 200
283 10
284 10
285 10
286 10
287 200
288 200
289 50
290 200
291 100
292 50
293 10
294 10
295 200
296 10
297 10
298 10
299 10
300 200
301 10
302 10
303 10
304 10
305 100
306 50
307 10
308 200
309 200
310 200
311 100
312 10
313 10
314 200
315 200
316 10
317 10
318 200
319 10
320 200
321 200
322 50
323 10
324 10
325 10
326 10
327 200
328 200
329 10
330 10
331 10
332 200
333 200
334 10
335 10
336 10
337 200
338 200
339 100
340 200
341 100
342 10
343 10
344 200
345 50
346 10
347 10
348 10
349 10
350 100
351 50
352 10
353 10
354 200
355 100
356 10
357 10
358 10
359 10
360 200
361 200
362 50
363 10
364 10
365 10
366 10
367 200
368 100
369 10
370 10
371 10
372 100
373 50
374 10
375 200
376 200
377 50
378 10
379 10
380 10
381 10
382 200
383 100
384 10
385 10
386 10
387 200
388 10
389 10
390 10
391 200
392 200
393 50
394 10
395 10
396 200
397 200
398 10
399 10
400 200
401 200
402 50
403 10
404 10
405 10
406 10
407 200
408 100
409 200
410 200
411 10
412 10
413 10
414 10
415 200
416 100
417 100
418 10
419 10
420 10
421 10
422 200
423 200
424 50
425 10
426 10
427 200
428 50
429 10
430 10
431 10
432 10
433 200
434 10
435 10
436 10
437 10
438 200
439 200
440 50
441 200
442 200
443 200
444 200
445 200
446 10
447 10
448 10
449 10
450 200
451 50
452 10
453 10
454 10
455 200
456 100
457 10
458 10
459 100
460 50
461 10
462 10
463 200
464 200
465 10
466 200
467 100
468 10
469 10
470 10
471 200
472 50
473 10
474 10
475 10
476 10
477 200
478 100
479 50
480 10
481 10
482 10
483 200
484 10
485 10
486 200
487 100
488 10
489 10
490 10
491 200
492 200
493 50
494 10
495 10
496 200
497 100
498 10
499 200
500 50
501 10
502 200
503 100
504 50
505 10
506 10
507 10
508 10
509 100
510 50
511 10
512 10
513 200
514 50
515 10
516 10
517 10
518 200
519 100
520 10
521 10
522 10
523 200
524 200
525 10
526 10
527 100
528 10
529 10
530 200
531 200
532 50
533 10
534 10
535 200
536 200
537 50
538 10
539 10
540 10
541 10
542 200
543 200
544 10
545 10
546 100
547 50
548 10
549 10
550 200
551 50
552 10
553 10
554 200
555 200
556 10
557 10
558 10
559 10
560 200
561 100
562 50
563 10
564 10
565 200
566 100
567 50
568 200
569 10
570 200
571 200
572 10
573 10
574 10
575 10
576 200
577 10
578 200
579 200
580 10
581 10
582 10
583 10
584 200
585 100
586 50
587 200
588 50
589 10
590 10
591 10
592 10
593 200
594 100
595 50
596 10
597 10
598 10
599 200
600 100
601 10
602 10
603 10
604 10
605 200
606 10
607 10
608 200
609 200
610 50
611 10
612 10
613 10
614 10
DEPOT_SECTION
1
-1
EOF