Normalized Data/p04_9_normalized_splitx10_0.sol
613 -15 595 596 593 592 594 597 490 127 126 125 415 -19 23 24 21 22 269 268 266 265 267 261 259 260 36 37 38 -29 27 26 28 162 163 160 159 161 563 559 560 562 561 -33 549 551 550 552 491 485 487 486 -34 35 498 500 257 258 418 419 416 417 420 519 520 521 518 517 -42 43 44 45 405 401 404 399 403 400 402 -48 47 46 423 421 422 215 -54 52 50 53 51 49 97 98 99 95 94 96 336 -56 55 122 123 120 124 121 337 338 202 201 204 203 200 305 306 304 -59 61 57 58 60 62 157 154 155 158 156 554 557 556 555 -65 66 63 64 195 191 190 193 30 342 340 341 339 -67 69 71 332 333 331 334 335 149 150 153 151 152 468 466 -70 68 294 295 297 298 296 208 205 206 207 353 357 354 356 358 355 241 239 240 242 -72 73 74 307 308 545 -78 79 76 75 77 108 107 110 106 109 279 277 278 276 -80 84 81 83 482 522 523 525 524 499 -82 248 250 249 247 144 145 143 142 141 270 271 272 484 483 -89 93 90 449 452 451 453 450 210 299 301 -92 91 118 119 117 368 370 366 369 367 209 213 211 214 212 -101 100 102 105 104 103 -133 132 135 134 280 284 281 282 283 285 437 438 -164 165 131 129 130 128 476 496 495 497 -166 167 230 398 397 395 396 439 -170 171 172 173 174 359 362 360 363 361 364 365 147 148 146 505 506 425 424 218 216 -176 177 175 2 1 586 590 591 588 587 589 -185 184 186 187 189 188 327 329 328 326 330 -192 194 309 310 311 312 236 233 234 235 237 465 469 467 -217 508 510 509 511 456 457 454 455 378 374 375 377 379 376 380 246 -219 245 168 169 11 13 14 12 604 605 606 -221 220 223 222 570 569 571 572 573 574 255 -226 227 225 224 441 440 228 229 256 254 -232 231 115 114 116 264 263 262 -274 273 275 238 479 478 480 477 481 251 252 253 603 602 -290 291 293 292 289 598 599 601 600 575 576 -302 303 300 542 543 541 544 139 140 382 381 383 385 384 -316 315 314 313 138 136 137 20 10 610 -318 317 9 8 613 608 607 611 609 612 -319 323 325 322 324 320 321 392 391 390 394 393 -346 344 348 343 345 347 183 181 182 198 197 199 196 389 388 386 387 -406 407 179 178 180 583 584 585 -414 39 40 41 565 566 564 -433 435 436 434 432 372 371 373 350 351 352 349 16 18 17 460 461 459 458 -442 243 244 25 503 501 502 -443 448 447 446 444 445 413 409 412 410 408 411 32 31 533 531 -462 463 464 287 286 288 527 526 528 507 504 -475 472 470 474 473 471 4 7 6 5 3 553 558 -489 488 578 577 581 579 582 580 111 113 112 568 567 494 492 493 -516 428 427 515 512 514 513 426 431 429 430 86 85 88 87 547 548 546 -532 529 530 538 536 535 534 540 537 539 0 





OBJ=
4395.724
BEST_KNOWN=
0.000